(declare-sort $$unsorted 0)
(declare-fun tptp.op ($$unsorted $$unsorted) $$unsorted)
(assert (forall ((X0 $$unsorted) (X1 $$unsorted) (X2 $$unsorted) (X3 $$unsorted)) (= X0 (tptp.op X0 (tptp.op (tptp.op X1 X1) (tptp.op X2 X3))))))
(assert (not (forall ((X0 $$unsorted) (X1 $$unsorted) (X2 $$unsorted) (X3 $$unsorted)) (= X0 (tptp.op X0 (tptp.op (tptp.op X1 X1) X2))))))
(set-info :filename Equation851_implies_Equation109)
(check-sat-assuming ( true ))
